; PUSH 0x00 PUSH cw_2 SWAP1 DUP2 MUL => PUSH cw_2 PUSH 0x00
(set-option :produce-proofs true)
; 
(set-info :status unknown)
(declare-fun storage_t ((_ BitVec 256) Int (_ BitVec 256)) (_ BitVec 256))
(declare-fun w_2 () (_ BitVec 256))
(declare-fun storage_s ((_ BitVec 256) Int (_ BitVec 256)) (_ BitVec 256))
(declare-fun exc_halt_t (Int) Bool)
(declare-fun exc_halt_s (Int) Bool)
(declare-fun sc_t (Int) (_ BitVec 6))
(declare-fun stack_t ((_ BitVec 256) Int (_ BitVec 6)) (_ BitVec 256))
(declare-fun stack_s ((_ BitVec 256) Int (_ BitVec 6)) (_ BitVec 256))
(declare-fun sc_s (Int) (_ BitVec 6))
(declare-fun used_gas_t ((_ BitVec 256) Int) Int)
(declare-fun used_gas_s ((_ BitVec 256) Int) Int)
(assert
 (let (($x7871 (forall ((w (_ BitVec 256)) )(let ((?x717 (storage_t w_2 2 w)))
 (let ((?x7006 (storage_s w_2 5 w)))
 (= ?x7006 ?x717))))
 ))
 (let (($x5252 (exc_halt_t 2)))
 (let (($x11317 (exc_halt_s 5)))
 (let (($x7553 (= $x11317 $x5252)))
 (let (($x2461 (forall ((n (_ BitVec 6)) )(let ((?x2714 (sc_t 2)))
 (let (($x9244 (bvsle ?x2714 n)))
 (let ((?x1693 (stack_t w_2 2 n)))
 (let ((?x3021 (stack_s w_2 5 n)))
 (let (($x3344 (= ?x3021 ?x1693)))
 (or $x3344 $x9244)))))))
 ))
 (let ((?x2714 (sc_t 2)))
 (let ((?x4319 (sc_s 5)))
 (let (($x6650 (= ?x4319 ?x2714)))
 (let ((?x4236 (used_gas_t w_2 0)))
 (let ((?x7890 (used_gas_s w_2 0)))
 (let (($x11524 (= ?x7890 ?x4236)))
 (let (($x11143 (forall ((w (_ BitVec 256)) )(let ((?x854 (storage_t w_2 0 w)))
 (let ((?x1816 (storage_s w_2 0 w)))
 (= ?x1816 ?x854))))
 ))
 (let (($x56 (exc_halt_t 0)))
 (let (($x57 (exc_halt_s 0)))
 (let (($x58 (= $x57 $x56)))
 (let (($x2451 (forall ((n (_ BitVec 6)) )(let ((?x9294 (stack_t w_2 0 n)))
 (let ((?x9880 (stack_s w_2 0 n)))
 (let (($x10451 (= ?x9880 ?x9294)))
 (let ((?x63 (sc_t 0)))
 (let (($x9737 (bvsle ?x63 n)))
 (or $x9737 $x10451)))))))
 ))
 (let ((?x63 (sc_t 0)))
 (let ((?x72 (sc_s 0)))
 (let (($x73 (= ?x72 ?x63)))
 (let (($x8039 (not (= ((_ extract 6 6) (bvadd (_ bv1 7) (concat (_ bv0 1) (sc_t 1)))) (_ bv0 1)))))
 (let (($x6122 (exc_halt_t 1)))
 (let (($x3129 (forall ((w (_ BitVec 256)) )(let ((?x10664 (storage_t w_2 1 w)))
 (let ((?x717 (storage_t w_2 2 w)))
 (= ?x717 ?x10664))))
 ))
 (let (($x4910 (forall ((n (_ BitVec 6)) )(or (bvsle (sc_t 1) n) (= (stack_t w_2 2 n) (stack_t w_2 1 n))))
 ))
 (let (($x4440 (= ?x2714 (bvadd (_ bv1 6) (sc_t 1)))))
 (let (($x1753 (= $x6122 (or $x56 (not (= ((_ extract 6 6) (bvadd (_ bv1 7) (concat (_ bv0 1) ?x63))) (_ bv0 1)))))))
 (let (($x4328 (forall ((w (_ BitVec 256)) )(let ((?x854 (storage_t w_2 0 w)))
 (let ((?x10664 (storage_t w_2 1 w)))
 (= ?x10664 ?x854))))
 ))
 (let (($x11523 (forall ((n (_ BitVec 6)) )(let ((?x63 (sc_t 0)))
 (let (($x9737 (bvsle ?x63 n)))
 (or (= (stack_t w_2 1 n) (stack_t w_2 0 n)) $x9737))))
 ))
 (let ((?x5151 (sc_t 1)))
 (let (($x10883 (= ?x5151 (bvadd (_ bv1 6) ?x63))))
 (let (($x2852 (= $x11317 (or (exc_halt_s 4) (not (bvsle (_ bv0 6) (bvadd (_ bv62 6) (sc_s 4))))))))
 (let (($x5635 (forall ((w (_ BitVec 256)) )(let ((?x5521 (storage_s w_2 4 w)))
 (let ((?x7006 (storage_s w_2 5 w)))
 (= ?x7006 ?x5521))))
 ))
 (let (($x4765 (forall ((n (_ BitVec 6)) )(let ((?x4305 (sc_s 4)))
 (let ((?x9058 (bvadd (_ bv62 6) ?x4305)))
 (let (($x4752 (bvsle ?x9058 n)))
 (or (= (stack_s w_2 5 n) (stack_s w_2 4 n)) $x4752)))))
 ))
 (let ((?x4305 (sc_s 4)))
 (let ((?x4445 (bvadd (_ bv63 6) ?x4305)))
 (let (($x6275 (= ?x4319 ?x4445)))
 (let ((?x6407 (stack_s w_2 4 ?x4445)))
 (let (($x5352 (= (stack_s w_2 5 (bvadd (_ bv63 6) ?x4319)) (bvmul (stack_s w_2 4 (bvadd (_ bv62 6) ?x4305)) ?x6407))))
 (let (($x2559 (not (bvsle (_ bv0 6) (bvadd (_ bv62 6) (sc_s 3))))))
 (let (($x292 (exc_halt_s 3)))
 (let (($x1794 (or $x292 $x2559 (not (= ((_ extract 6 6) (bvadd (_ bv1 7) (concat (_ bv0 1) (sc_s 3)))) (_ bv0 1))))))
 (let (($x7172 (exc_halt_s 4)))
 (let (($x3096 (forall ((w (_ BitVec 256)) )(let ((?x777 (storage_s w_2 3 w)))
 (let ((?x5521 (storage_s w_2 4 w)))
 (= ?x5521 ?x777))))
 ))
 (let (($x6134 (forall ((n (_ BitVec 6)) )(let ((?x275 (sc_s 3)))
 (let ((?x7426 (bvadd (_ bv62 6) ?x275)))
 (let (($x7529 (bvsle ?x7426 n)))
 (or (= (stack_s w_2 4 n) (stack_s w_2 3 n)) $x7529)))))
 ))
 (let ((?x275 (sc_s 3)))
 (let ((?x8928 (bvadd (_ bv63 6) ?x275)))
 (let ((?x10646 (stack_s w_2 3 ?x8928)))
 (let ((?x7426 (bvadd (_ bv62 6) ?x275)))
 (let ((?x8025 (stack_s w_2 3 ?x7426)))
 (let (($x8719 (= $x292 (or (exc_halt_s 2) (not (bvsle (_ bv0 6) (bvadd (_ bv62 6) (sc_s 2))))))))
 (let (($x9959 (forall ((w (_ BitVec 256)) )(let ((?x10419 (storage_s w_2 2 w)))
 (let ((?x777 (storage_s w_2 3 w)))
 (= ?x777 ?x10419))))
 ))
 (let (($x6740 (forall ((n (_ BitVec 6)) )(or (bvsle (bvadd (_ bv62 6) (sc_s 2)) n) (= (stack_s w_2 3 n) (stack_s w_2 2 n))))
 ))
 (let ((?x218 (sc_s 2)))
 (let (($x2859 (= ?x275 ?x218)))
 (let (($x189 (exc_halt_s 1)))
 (let (($x3369 (or $x189 (not (= ((_ extract 6 6) (bvadd (_ bv1 7) (concat (_ bv0 1) (sc_s 1)))) (_ bv0 1))))))
 (let (($x247 (exc_halt_s 2)))
 (let (($x5090 (forall ((w (_ BitVec 256)) )(let ((?x9332 (storage_s w_2 1 w)))
 (let ((?x10419 (storage_s w_2 2 w)))
 (= ?x10419 ?x9332))))
 ))
 (let (($x2738 (forall ((n (_ BitVec 6)) )(or (bvsle (sc_s 1) n) (= (stack_s w_2 2 n) (stack_s w_2 1 n))))
 ))
 (let (($x779 (= $x189 (or $x57 (not (= ((_ extract 6 6) (bvadd (_ bv1 7) (concat (_ bv0 1) ?x72))) (_ bv0 1)))))))
 (let (($x10757 (forall ((w (_ BitVec 256)) )(let ((?x1816 (storage_s w_2 0 w)))
 (let ((?x9332 (storage_s w_2 1 w)))
 (= ?x9332 ?x1816))))
 ))
 (let (($x6625 (forall ((n (_ BitVec 6)) )(or (bvsle (sc_s 0) n) (= (stack_s w_2 1 n) (stack_s w_2 0 n))))
 ))
 (let ((?x154 (sc_s 1)))
 (let (($x3074 (= ?x154 (bvadd (_ bv1 6) ?x72))))
 (let (($x7331 (forall ((w (_ BitVec 256)) )(let ((?x1816 (storage_s w_2 0 w)))
 (= ?x1816 (_ bv0 256))))
 ))
 (let (($x8341 (= ?x7890 0)))
 (let (($x3082 (not $x57)))
 (let (($x9833 (= ?x72 (_ bv0 6))))
 (and $x9833 $x3082 $x8341 $x7331 (= (stack_s w_2 1 ?x72) (_ bv0 256)) (= (used_gas_s w_2 1) (+ 3 ?x7890)) $x3074 $x6625 $x10757 $x779 (= (stack_s w_2 2 ?x154) w_2) (= (used_gas_s w_2 2) (+ 3 (used_gas_s w_2 1))) (= ?x218 (bvadd (_ bv1 6) ?x154)) $x2738 $x5090 (= $x247 $x3369) (= ?x10646 (stack_s w_2 2 (bvadd (_ bv62 6) ?x218))) (= ?x8025 (stack_s w_2 2 (bvadd (_ bv63 6) ?x218))) (= (used_gas_s w_2 3) (+ 3 (used_gas_s w_2 2))) $x2859 $x6740 $x9959 $x8719 (= ?x6407 ?x8025) (= (stack_s w_2 4 ?x7426) ?x8025) (= (stack_s w_2 4 ?x8928) ?x10646) (= (used_gas_s w_2 4) (+ 3 (used_gas_s w_2 3))) (= ?x4305 (bvadd (_ bv1 6) ?x275)) $x6134 $x3096 (= $x7172 $x1794) $x5352 (= (used_gas_s w_2 5) (+ 5 (used_gas_s w_2 4))) $x6275 $x4765 $x5635 $x2852 (= (stack_t w_2 1 ?x63) w_2) (= (used_gas_t w_2 1) (+ 3 ?x4236)) $x10883 $x11523 $x4328 $x1753 (= (stack_t w_2 2 ?x5151) (_ bv0 256)) (= (used_gas_t w_2 2) (+ 3 (used_gas_t w_2 1))) $x4440 $x4910 $x3129 (= $x5252 (or $x6122 $x8039)) $x73 $x2451 $x58 $x11143 $x11524 (not (and $x6650 $x2461 $x7553 $x7871)))))))))))))))))))))))))))))))))))))))))))))))))))))))))))))))))))))))
(check-sat)
(get-proof)
